%chk=Cu2_cuadrado_plano_cc-pvtz-def2-tzv_2.chk
# opt pbepbe/cc-pvtz/def2tzv pop=(full,nbo) geom=connectivity output=wfx

Cu2_cuadrado_plano_cc-pvtz-def2-tzv_2

3 1
 Cu              -1    0.00140355   -0.00422817   -0.01814652
 O               -1    0.35858638   -1.89146168   -0.01844967
 H                0    0.47803449   -2.36073751    0.85312334
 O               -1   -1.90754332   -0.36183724   -0.01830369
 H                0   -2.46153040    0.25426041   -0.57462896
 O               -1   -0.36223942    1.90753735   -0.01783090
 H                0   -0.46180599    2.37541970    0.85687064
 O               -1    1.90504207    0.35793467   -0.01803143
 H                0    2.46162004   -0.24994253   -0.58086470
 H                0   -2.37348363   -0.47125133    0.85629648
 H                0    0.24456041    2.46237636   -0.58333405
 H                0    2.37360429    0.46535965    0.85544050
 H                0   -0.25246790   -2.45025263   -0.57572869

 1 2 1.0 4 1.0 6 1.0 8 1.0
 2 3 1.0 13 1.0
 3
 4 5 1.0 10 1.0
 5
 6 7 1.0 11 1.0
 7
 8 9 1.0 12 1.0
 9
 10
 11
 12
 13

Cu2_cuadrado_plano_cc-pvtz-def2-tzv_2.wfx