%chk=Fe3_tetraedrico_cc-pvtz-def2-tzv_1.chk
# opt upbepbe/cc-pvtz/def2tzv pop=full geom=connectivity output=wfx

Fe3_tetraedrico_cc-pvtz-def2-tzv_1

3 2
 Fe              -1    0.00761123   -0.00098647    0.00107529
 O               -1   -0.84226308   -0.87198447    1.35439589
 H                0   -0.82386717   -1.85962525    1.48723337
 O               -1   -0.36812667   -0.82200320   -1.57916300
 H                0    0.16820856   -0.65308262   -2.40320261
 O               -1   -0.56322259    1.72603432   -0.06176115
 H                0   -0.35572963    2.41229630    0.63184540
 O               -1    1.80405708   -0.03599180    0.29082941
 H                0    2.31089858   -0.74398970    0.77790334
 H                0    2.49008193    0.63310142    0.01297628
 H                0   -1.37349214    2.03479585   -0.55281314
 H                0   -1.22390306   -1.24849329   -1.85989584
 H                0   -1.63364675   -0.51779335    1.84358647

 1 2 1.0 4 1.0 6 1.0 8 1.0
 2 3 1.0 13 1.0
 3
 4 5 1.0 12 1.0
 5
 6 7 1.0 11 1.0
 7
 8 9 1.0 10 1.0
 9
 10
 11
 12
 13

Fe3_tetraedrico_cc-pvtz-def2-tzv_1.wfx