%chk=Co2_tetraedrico_cc-pvtz-def2-tzv_2.chk
# opt upbepbe/cc-pvtz/def2tzv pop=full geom=connectivity output=wfx

Co2_tetraedrico_cc-pvtz-def2-tzv_2

2 2
 Co              -1    0.00061029    0.00006172    0.00065094
 O               -1    1.75103264   -0.13707084   -0.47853246
 H                0    2.34411462    0.61354033   -0.69705872
 O               -1   -0.13432489   -0.01272239    1.81559710
 H                0   -0.85192051    0.36451897    2.36910487
 O               -1   -0.92847804   -1.40591340   -0.68668402
 H                0   -0.80610889   -1.85709073   -1.54972457
 O               -1   -0.68578784    1.55595349   -0.64777708
 H                0   -0.50854061    2.47456656   -0.35171833
 H                0    0.48166200   -0.46529721    2.43146967
 H                0    2.30306557   -0.94606934   -0.54020936
 H                0   -1.71811835   -1.81820548   -0.27513709
 H                0   -1.28016670    1.63039559   -1.42513024

 1 2 1.0 4 1.0 6 1.0 8 1.0
 2 3 1.0 11 1.0
 3
 4 5 1.0 10 1.0
 5
 6 7 1.0 12 1.0
 7
 8 9 1.0 13 1.0
 9
 10
 11
 12
 13

Co2_tetraedrico_cc-pvtz-def2-tzv_2.wfx
