%chk=Cr2_tetraedrico_cc-pvtz-def2-tzv_2.chk
# opt pbepbe/cc-pvtz/def2tzv pop=full geom=connectivity output=wfx

Cr2_tetraedrico_cc-pvtz-def2-tzv_2

2 1
 Cr              -1   -0.00000473   -0.00001289   -0.00001486
 O               -1   -0.34174346   -1.41978443   -1.03517857
 H                0    0.09032999   -1.70173164   -1.87606373
 O               -1    0.34087779    1.42244755   -1.03176382
 H                0    0.90178919    2.18494450   -0.76069617
 O               -1   -1.42069383    0.33995145    1.03447401
 H                0   -1.70353044   -0.09324880    1.87448130
 O               -1    1.42154048   -0.34266676    1.03240851
 H                0    2.18581201   -0.90079884    0.76053426
 H                0   -0.09300095    1.70803695   -1.87049532
 H                0   -2.18459760    0.89956228    0.76466352
 H                0    1.70430448    0.08802088    1.87372731
 H                0   -0.90084087   -2.18405850   -0.76531560

 1 2 1.0 4 1.0 6 1.0 8 1.0
 2 3 1.0 13 1.0
 3
 4 5 1.0 10 1.0
 5
 6 7 1.0 11 1.0
 7
 8 9 1.0 12 1.0
 9
 10
 11
 12
 13

Cr2_tetraedrico_cc-pvtz-def2-tzv_2.wfx