%chk=V2_tetraedrico_cc-pvtz-def2-tzv_1.chk
# opt upbepbe/cc-pvtz/def2tzv pop=full geom=connectivity output=wfx

V2_tetraedrico_cc-pvtz-def2-tzv_1

2 2
 V               -1    0.00001782    0.00002926    0.00001010
 O               -1   -1.05995010    0.73241475   -1.34151143
 H                0   -1.48778643    0.25230494   -2.08734438
 O               -1    1.05812453   -1.35242029   -0.71475624
 H                0    1.46627511   -2.10518707   -0.22845056
 O               -1    1.08945054    1.32373149    0.72150111
 H                0    1.51222082    1.32347505    1.61097451
 O               -1   -1.08755421   -0.70360863    1.33480647
 H                0   -1.52658478   -1.58517489    1.33775213
 H                0   -1.47278639    1.62650791   -1.34882159
 H                0    1.52497690    2.06212354    0.23685895
 H                0    1.48819966   -1.36302295   -1.60066257
 H                0   -1.50549075   -0.21263786    2.07914195

 1 2 1.0 4 1.0 6 1.0 8 1.0
 2 3 1.0 10 1.0
 3
 4 5 1.0 12 1.0
 5
 6 7 1.0 11 1.0
 7
 8 9 1.0 13 1.0
 9
 10
 11
 12
 13

V2_tetraedrico_cc-pvtz-def2-tzv_1.wfx