%chk=Cr3_tetraedrico_cc-pvtz-def2-tzv_1.chk
# opt upbepbe/cc-pvtz/def2tzv pop=full geom=connectivity output=wfx

Cr3_tetraedrico_cc-pvtz-def2-tzv_1

3 2
 Cr              -1   -0.00000195   -0.00001896    0.00007425
 O               -1    1.41917401    0.35429005    1.03182286
 H                0    2.03198975   -0.31588867    1.44596617
 O               -1   -0.36093317    1.42112375   -1.02665967
 H                0   -1.24249753    1.64520102   -1.43747852
 O               -1   -1.41452296   -0.36294009    1.03521630
 H                0   -1.63558787   -1.24498338    1.44666528
 O               -1    0.35627487   -1.41254941   -1.04008201
 H                0    1.23577973   -1.63295738   -1.45730167
 H                0    0.30663125    2.03337299   -1.44577516
 H                0   -2.02579326    0.30371506    1.45723756
 H                0   -0.31345123   -2.02057763   -1.46197255
 H                0    1.64303390    1.23317861    1.44849695

 1 2 1.0 4 1.0 6 1.0 8 1.0
 2 3 1.0 13 1.0
 3
 4 5 1.0 10 1.0
 5
 6 7 1.0 11 1.0
 7
 8 9 1.0 12 1.0
 9
 10
 11
 12
 13

Cr3_tetraedrico_cc-pvtz-def2-tzv_1.wfx