%chk=Mn3_tetraedrico_cc-pvtz-def2-tzv_1.chk
# opt pbepbe/cc-pvtz/def2tzv pop=full geom=connectivity output=wfx

Mn3_tetraedrico_cc-pvtz-def2-tzv_1

3 1
 Mn              -1    0.00001239    0.00002736    0.00001278
 O               -1    0.96320371    1.14709093   -1.05137115
 H                0    1.83410482    1.54932867   -0.78439238
 O               -1   -1.14914590    0.95786573    1.05399636
 H                0   -1.59260466    0.65992640    1.89474692
 O               -1   -0.95571842   -1.14376716   -1.06169021
 H                0   -0.65654124   -1.58337333   -1.90407835
 O               -1    1.14171064   -0.96107962    1.05911571
 H                0    1.57872814   -0.66628184    1.90436980
 H                0   -1.55110506    1.82988947    0.79029028
 H                0   -1.82872628   -1.54619722   -0.80186948
 H                0    0.67021607    1.58760974   -1.89541442
 H                0    1.54521808   -1.83246488    0.79562245

 1 2 1.0 4 1.0 6 1.0 8 1.0
 2 3 1.0 12 1.0
 3
 4 5 1.0 10 1.0
 5
 6 7 1.0 11 1.0
 7
 8 9 1.0 13 1.0
 9
 10
 11
 12
 13

Mn3_tetraedrico_cc-pvtz-def2-tzv_1.wfx