%chk=Mn4_tetraedrico_cc-pvtz-def2-tzv_1.chk
# opt upbepbe/cc-pvtz/def2tzv pop=full geom=connectivity output=wfx

Mn4_tetraedrico_cc-pvtz-def2-tzv_1

4 2
 Mn              -1    0.00001481    0.00002141    0.00000619
 O               -1    1.05709703    1.46825651   -0.27524622
 H                0    1.50594862    1.71580292   -1.16063659
 O               -1   -1.05785167    0.27645608    1.46745412
 H                0   -1.50647650   -0.45840890    2.02014167
 O               -1    1.05603367   -1.46860853    0.27722692
 H                0    1.50269083   -1.71717136    1.16345319
 O               -1   -1.05521927   -0.27601786   -1.46941014
 H                0   -1.50254807    0.45890676   -2.02310923
 H                0   -1.50604101    1.16222027    1.71507860
 H                0   -1.50277195   -1.16180075   -1.71797355
 H                0    1.50392447   -2.02247498   -0.45721358
 H                0    1.50442513    2.02170121    0.45990718

 1 2 1.0 4 1.0 6 1.0 8 1.0
 2 3 1.0 13 1.0
 3
 4 5 1.0 10 1.0
 5
 6 7 1.0 12 1.0
 7
 8 9 1.0 11 1.0
 9
 10
 11
 12
 13

Mn4_tetraedrico_cc-pvtz-def2-tzv_1.wfx