%chk=V4_cuadrado_plano_cc-pvtz-def2-tzv_2.chk
# opt upbepbe/cc-pvtz/def2tzv pop=full geom=connectivity output=wfx

V4_cuadrado_plano_cc-pvtz-def2-tzv_2

4 2
 V               -1   -0.00008384    0.00004294   -0.00021395
 O               -1    1.56041451    1.01228709    0.00007203
 H                0    1.76088807    1.86273570    0.53077014
 O               -1   -1.56033332   -1.01239432    0.00007210
 H                0   -2.41872839   -0.84804863   -0.53017414
 O               -1    1.01237604   -1.56037182    0.00016513
 H                0    1.86297723   -1.76018211    0.53081796
 O               -1   -1.01230532    1.56037600    0.00016516
 H                0   -1.86271017    1.76073075    0.53090658
 H                0   -1.76025757   -1.86303296    0.53063956
 H                0    0.84822358   -2.41876488   -0.53011640
 H                0   -0.84803851    2.41839787   -0.53077764
 H                0    2.41835894    0.84800115   -0.53094063

 1 2 1.0 4 1.0 6 1.0 8 1.0
 2 3 1.0 13 1.0
 3
 4 5 1.0 10 1.0
 5
 6 7 1.0 11 1.0
 7
 8 9 1.0 12 1.0
 9
 10
 11
 12
 13

V4_cuadrado_plano_cc-pvtz-def2-tzv_2.wfx