%nprocshared=16
%mem=32GB
%chk=Ni23.chk
# opt 6-311++g(2d,2p) m062x output=wfnx scf=tight

Ni[H2O]6 (2+)

2 3
 Ni                -0.00000000   -0.00000000    0.00000000
 O                 -2.07500789    0.01284485   -0.00456272
 H                 -2.64738993   -0.76228729    0.01161029
 H                 -2.63585047    0.79604614    0.02554455
 O                  0.01926956   -0.03211302    2.07404609
 H                 -0.74768346   -0.02796836    2.65757412
 H                  0.81072636   -0.03947954    2.62391809
 O                  0.00682659    2.07567451    0.02917965
 H                  0.01429665    2.65397146   -0.74177918
 H                  0.02191526    2.63065852    0.81689130
 O                  2.07500789   -0.01284485    0.00456272
 H                  2.64738993    0.76228729   -0.01161029
 H                  2.63585047   -0.79604614   -0.02554455
 O                 -0.01926956    0.03211302   -2.07404609
 H                  0.74768346    0.02796836   -2.65757412
 H                 -0.81072636    0.03947954   -2.62391809
 O                 -0.00682659   -2.07567451   -0.02917965
 H                 -0.01429665   -2.65397146    0.74177918
 H                 -0.02191526   -2.63065852   -0.81689130

Ni23.wfx
