%nprocshared=16
%mem=32GB
%chk=Cr25.chk
# opt 6-311++g(2d,2p) m062x output=wfnx scf=tight

Cr[H2O]6 (2+)

2 5
 Cr                -0.00006462    0.00009357   -0.00037083
 O                 -0.00655781    0.02627551   -2.10423025
 O                 -2.32431221    0.01337644    0.00980144
 O                  2.32425383   -0.01401189   -0.00766279
 O                  0.00676037   -0.02559770    2.10375222
 O                 -0.02045554   -2.10591287   -0.02662663
 O                  0.02033825    2.10599984    0.02605125
 H                 -0.78812888    0.03692399   -2.66936184
 H                  0.77211462    0.02875057   -2.67329255
 H                 -2.90501325    0.78259915    0.02179461
 H                 -2.90718093   -0.75432309    0.00118215
 H                  2.90723257    0.75361954    0.00050444
 H                  2.90472371   -0.78346731   -0.02006576
 H                  0.78864265   -0.03648864    2.66834190
 H                 -0.77152037   -0.02954476    2.67339037
 H                 -0.02182314   -2.66551042   -0.81167452
 H                 -0.01612498   -2.68584718    0.74349539
 H                  0.02208804    2.66544920    0.81122471
 H                  0.01618670    2.68596107   -0.74402631

Cr25.wfx

