%chk=Cr2_cuadrado_plano_cc-pvtz-def2-tzv_1.chk
# opt pbepbe/cc-pvtz/def2tzv pop=full geom=connectivity output=wfx

Cr2_cuadrado_plano_cc-pvtz-def2-tzv_1

2 1
 Cr              -1    0.00006993    0.00002393   -0.00024315
 O               -1    1.75499173   -0.35225138    0.00039249
 H                0    2.20676248   -1.22851888    0.02861084
 O               -1   -1.75500652    0.35224375   -0.00006255
 H                0   -2.20752524    1.22818446   -0.02776080
 O               -1   -0.35228657   -1.75498218   -0.00027472
 H                0    0.28219295   -2.51006882   -0.00728659
 O               -1    0.35220842    1.75501609    0.00046782
 H                0   -0.28258285    2.50986075    0.00788524
 H                0    1.22884204    2.20695955    0.00919344
 H                0   -2.50943374   -0.28239153    0.02966587
 H                0    2.50990243    0.28174645   -0.03021709
 H                0   -1.22909292   -2.20655666   -0.00843953

 1 2 1.0 4 1.0 6 1.0 8 1.0
 2 3 1.0 12 1.0
 3
 4 5 1.0 11 1.0
 5
 6 7 1.0 13 1.0
 7
 8 9 1.0 10 1.0
 9
 10
 11
 12
 13

Cr2_cuadrado_plano_cc-pvtz-def2-tzv_1.wfx
