%chk=Ni3_tetraedrico_cc-pvtz-def2-tzv_1.chk
# opt upbepbe/cc-pvtz/def2tzv pop=full geom=connectivity output=wfx

Ni3_tetraedrico_cc-pvtz-def2-tzv_1

3 2
 Ni              -1   -0.00802130   -0.00386647   -0.00256444
 O               -1    0.56063797    1.61954780   -0.56581680
 H                0    0.39132603    2.00230615   -1.47033704
 O               -1    0.87944510   -1.29959238   -0.90234123
 H                0    1.70743349   -1.15458473   -1.43833885
 O               -1   -1.78418093   -0.16206440   -0.31293667
 H                0   -2.32599381   -1.00080922   -0.27048909
 O               -1    0.31201289   -0.17335623    1.77083676
 H                0    1.16702437   -0.49257563    2.17261731
 H                0    0.83211058   -2.27909850   -0.71870311
 H                0    1.29066268    2.16276491   -0.16254091
 H                0   -2.45411318    0.57396668   -0.40088662
 H                0   -0.12717384    0.42001324    2.44254631

 1 2 1.0 4 1.0 6 1.0 8 1.0
 2 3 1.0 11 1.0
 3
 4 5 1.0 10 1.0
 5
 6 7 1.0 12 1.0
 7
 8 9 1.0 13 1.0
 9
 10
 11
 12
 13

Ni3_tetraedrico_cc-pvtz-def2-tzv_1.wfx