%chk=Ti2_tetraedrico_cc-pvtz-def2-tzv_2.chk
# opt upbepbe/cc-pvtz/def2tzv pop=full geom=connectivity output=wfx

Ti2_tetraedrico_cc-pvtz-def2-tzv_2

2 3
 Ti              -1   -0.00000621    0.00001881    0.00002005
 O               -1    0.94846598   -1.31835738   -1.13253692
 H                0    1.80479655   -1.74722805   -0.91896286
 O               -1   -0.94710680    1.30094726   -1.15366373
 H                0   -1.80276911    1.73470264   -0.94750234
 O               -1    1.30900320    0.95650694    1.13669302
 H                0    1.72037151    0.66860893    1.98067574
 O               -1   -1.31038688   -0.93902217    1.14958741
 H                0   -1.74118245   -1.79668834    0.94561338
 H                0    0.65459948   -1.73794588   -1.97057689
 H                0   -0.65268796    1.70552988   -1.99874502
 H                0    1.74122218    1.81039284    0.92026610
 H                0   -1.72401768   -0.63838316    1.98815251

 1 2 1.0 4 1.0 6 1.0 8 1.0
 2 3 1.0 10 1.0
 3
 4 5 1.0 11 1.0
 5
 6 7 1.0 12 1.0
 7
 8 9 1.0 13 1.0
 9
 10
 11
 12
 13

Ti2_tetraedrico_cc-pvtz-def2-tzv_2.wfx