%chk=Ti3_tetraedrico_cc-pvtz-def2-tzv_1.chk
# opt upbepbe/cc-pvtz/def2tzv pop=full geom=connectivity output=wfx

Ti3_tetraedrico_cc-pvtz-def2-tzv_1

3 2
 Ti              -1   -0.00000374    0.00001523    0.00001051
 O               -1   -0.78278995    1.41370018   -1.14416658
 H                0   -1.69832064    1.42841728   -1.53145190
 O               -1   -1.41442505   -0.78162524    1.14406085
 H                0   -1.42879278   -1.69690825    1.53185914
 O               -1    0.78237389   -1.41555121   -1.14211798
 H                0    1.69797116   -1.43086822   -1.52917757
 O               -1    1.41482669    0.78353750    1.14226630
 H                0    1.42880027    1.69880439    1.53019462
 H                0    0.30676331   -2.19264476   -1.54000961
 H                0    2.19277380    0.30879915    1.53954084
 H                0   -2.19186874   -0.30651521    1.54182561
 H                0   -0.30712864    2.19009062   -1.54335312

 1 2 1.0 4 1.0 6 1.0 8 1.0
 2 3 1.0 13 1.0
 3
 4 5 1.0 12 1.0
 5
 6 7 1.0 10 1.0
 7
 8 9 1.0 11 1.0
 9
 10
 11
 12
 13

Ti3_tetraedrico_cc-pvtz-def2-tzv_1.wfx