%chk=V4_tetraedrico_cc-pvtz-def2-tzv_1.chk
# opt upbepbe/cc-pvtz/def2tzv pop=full geom=connectivity output=wfx

V4_tetraedrico_cc-pvtz-def2-tzv_1

4 2
 V               -1   -0.00000360    0.00000499    0.00000710
 O               -1   -1.23658273   -0.88104227    1.07435727
 H                0   -1.13171735   -1.80585567    1.49701822
 O               -1   -0.88253934    1.23051183   -1.08007812
 H                0   -0.48699294    2.07838147   -1.49193522
 O               -1    1.23200858    0.88860661    1.07338202
 H                0    2.08130249    0.49595190    1.48507880
 O               -1    0.88709877   -1.23805565   -1.06763318
 H                0    0.49324089   -2.08868090   -1.47533133
 H                0   -2.08653368   -0.48492385    1.48128396
 H                0    1.81410231   -1.13375182   -1.48566910
 H                0    1.12442157    1.81554168    1.49068761
 H                0   -1.80762271    1.12305823   -1.50152027

 1 2 1.0 4 1.0 6 1.0 8 1.0
 2 3 1.0 10 1.0
 3
 4 5 1.0 13 1.0
 5
 6 7 1.0 12 1.0
 7
 8 9 1.0 11 1.0
 9
 10
 11
 12
 13

V4_tetraedrico_cc-pvtz-def2-tzv_1.wfx