%chk=Sc2_tetraedrico_cc-pvtz-def2-tzv_2.chk
# opt upbepbe/cc-pvtz/def2tzv pop=full geom=connectivity output=wfx

Sc2_tetraedrico_cc-pvtz-def2-tzv_2

2 2
 Sc              -1   -0.00003521    0.00003814   -0.00002132
 O               -1   -1.20952286   -1.21696480    1.21078177
 H                0   -0.92452718   -2.03117245    1.71457020
 O               -1   -1.21541467    1.21240472   -1.20957527
 H                0   -0.93513121    2.02709401   -1.71511490
 O               -1    1.21071003    1.21253335    1.21404292
 H                0    2.16581170    1.04671407    1.45270730
 O               -1    1.21408618   -1.20782129   -1.21533425
 H                0    0.93305665   -2.02025937   -1.72404082
 H                0   -2.17016351    1.04530200   -1.44925595
 H                0    0.92852559    2.02404046    1.72369474
 H                0   -2.16413567   -1.05364490    1.45384088
 H                0    2.16843365   -1.04009060   -1.45527505

 1 2 1.0 4 1.0 6 1.0 8 1.0
 2 3 1.0 12 1.0
 3
 4 5 1.0 10 1.0
 5
 6 7 1.0 11 1.0
 7
 8 9 1.0 13 1.0
 9
 10
 11
 12
 13

Sc2_tetraedrico_cc-pvtz-def2-tzv_2.wfx