%chk=Zn2_tetraedrico_cc-pvtz-def2-tzv_1.chk
# opt pbepbe/cc-pvtz/def2tzv pop=full geom=connectivity output=wfx

Zn2_tetraedrico_cc-pvtz-def2-tzv_1

2 1
 Zn              -1   -0.00000178    0.00001185    0.00001262
 O               -1    1.11123183   -0.66328710    1.40475277
 H                0    1.00867371   -1.52067735    1.86541799
 O               -1    1.09411977    0.68654220   -1.40699650
 H                0    0.97114578    1.54033868   -1.86933453
 O               -1   -1.11679353    1.39420114    0.67611394
 H                0   -1.92585516    1.75522603    0.26048159
 O               -1   -1.08856477   -1.41740905   -0.67381909
 H                0   -0.97107508   -1.87902124   -1.52877303
 H                0   -1.00843268    1.85639381    1.53195145
 H                0   -1.89028608   -1.79359512   -0.25739845
 H                0    1.90368887    0.27926339   -1.77633813
 H                0    1.91224767   -0.23866117    1.77320557

 1 2 1.0 4 1.0 6 1.0 8 1.0
 2 3 1.0 13 1.0
 3
 4 5 1.0 12 1.0
 5
 6 7 1.0 10 1.0
 7
 8 9 1.0 11 1.0
 9
 10
 11
 12
 13

Zn2_tetraedrico_cc-pvtz-def2-tzv_1.wfx