%nprocshared=16
%mem=32GB
%chk=Mn26.chk
# opt 6-311++g(2d,2p) m062x output=wfnx scf=tight

Mn[H2O]6 (2+)

2 6
 Mn                 0.00000000    0.00000000    0.00000000
 O                 -0.02827211    2.19171638    0.00028434
 O                 -0.00218562   -0.00190281    2.19039698
 O                 -2.18847700   -0.01962578    0.00685275
 H                 -0.03520638    2.76886044    0.77260315
 H                 -0.03759787    2.76310267   -0.77647308
 H                  0.76598176    0.01177100    2.77301247
 H                 -0.78244805   -0.01592520    2.75674133
 H                 -2.75787821   -0.79776949   -0.00731972
 H                 -2.76746560    0.75142749   -0.00092168
 O                  0.02827211   -2.19171638   -0.00028434
 O                  0.00218562    0.00190281   -2.19039698
 O                  2.18847700    0.01962578   -0.00685275
 H                  0.03520638   -2.76886044   -0.77260315
 H                  0.03759787   -2.76310267    0.77647308
 H                 -0.76598176   -0.01177100   -2.77301247
 H                  0.78244805    0.01592520   -2.75674133
 H                  2.75787821    0.79776949    0.00731972
 H                  2.76746560   -0.75142749    0.00092168

Mn26.wfx

