%chk=Ti2_cuadrado_plano_cc-pvtz-def2-tzv_1.chk
# opt pbepbe/cc-pvtz/def2tzv pop=full geom=connectivity output=wfx

Ti2_cuadrado_plano_cc-pvtz-def2-tzv_1

2 1
 Ti              -1   -0.00004465   -0.00001148   -0.00004726
 O               -1   -1.71612474   -0.98767019   -0.00004726
 H                0   -2.41653270   -0.93789567    0.68618192
 O               -1    0.98761406   -1.71609157   -0.00004726
 H                0    1.62341519   -2.02277711   -0.68243261
 O               -1    1.71603544    0.98764723   -0.00004726
 H                0    2.02646867    1.61618720   -0.68753390
 O               -1   -0.98770336    1.71606861   -0.00004726
 H                0   -1.62426536    2.02235408   -0.68189687
 H                0    0.93490487   -2.41731036    0.68517320
 H                0   -2.02515951   -1.61714515   -0.68728032
 H                0   -0.93195850    2.41895536    0.68318503
 H                0    2.41553851    0.93825158    0.68715539

 1 2 1.0 4 1.0 6 1.0 8 1.0
 2 3 1.0 11 1.0
 3
 4 5 1.0 10 1.0
 5
 6 7 1.0 13 1.0
 7
 8 9 1.0 12 1.0
 9
 10
 11
 12
 13

Ti2_cuadrado_plano_cc-pvtz-def2-tzv_1.wfx