%chk=Fe2_tetraedrico_cc-pvtz-def2-tzv_1.chk
# opt pbepbe/cc-pvtz/def2tzv pop=full geom=connectivity output=wfx

Fe2_tetraedrico_cc-pvtz-def2-tzv_1

2 1
 Fe              -1   -0.00001050    0.01079864    0.00003105
 O               -1    1.48405231    1.06180076    0.07319252
 H                0    1.65321529    1.67657274   -0.67839563
 O               -1   -0.07243633   -1.04076699    1.48373073
 H                0   -0.88377924   -1.54607066    1.70550515
 O               -1   -1.48444488    1.06135179   -0.07203268
 H                0   -2.33061825    1.07502720   -0.58028998
 O               -1    0.07278751   -1.03919062   -1.48476642
 H                0    0.88483993   -1.54250018   -1.70847878
 H                0   -1.65478518    1.67490328    0.68027530
 H                0   -0.67004054   -1.51921073   -1.91065581
 H                0    0.67075707   -1.51983347    1.91005595
 H                0    2.33101509    1.07478761    0.58018340

 1 2 1.0 4 1.0 6 1.0 8 1.0
 2 3 1.0 13 1.0
 3
 4 5 1.0 12 1.0
 5
 6 7 1.0 10 1.0
 7
 8 9 1.0 11 1.0
 9
 10
 11
 12
 13

Fe2_tetraedrico_cc-pvtz-def2-tzv_1.wfx