%chk=V2_cuadrado_plano_cc-pvtz-def2-tzv_1.chk
# opt upbepbe/cc-pvtz/def2tzv pop=(full,nbo) geom=connectivity output=wfx

V2_cuadrado_plano_cc-pvtz-def2-tzv_1

2 2
 V               -1    0.00008549    0.00017323    0.00016283
 O               -1    2.10520818    0.02092592    0.00628130
 H                0    2.67686209    0.02886924    0.80100899
 O               -1    0.02303012   -2.02363837   -0.00104704
 H                0   -0.75161224   -2.61604781    0.09219084
 O               -1   -2.10517943   -0.02183354   -0.00447115
 H                0   -2.69998181   -0.03043785    0.77308715
 O               -1   -0.02321968    2.02407683   -0.00105436
 H                0    0.75113488    2.61656074   -0.09618954
 H                0    2.70082381    0.02873048   -0.77066303
 H                0   -0.81154966    2.59794502    0.09340399
 H                0    0.81130840   -2.59755468   -0.09564479
 H                0   -2.67766523   -0.02829622   -0.79860871

 1 2 1.0 4 1.0 6 1.0 8 1.0
 2 3 1.0 10 1.0
 3
 4 5 1.0 12 1.0
 5
 6 7 1.0 13 1.0
 7
 8 9 1.0 11 1.0
 9
 10
 11
 12
 13

V2_cuadrado_plano_cc-pvtz-def2-tzv_1.wfx