%nprocshared=16
%mem=32GB
%chk=Ni23_32.chk
# opt=modredundant 6-311++g(2d,2p) geom=connectivity m062x output=wfnx

Ni23_32

2 3
 Ni                 0.00000000    0.00000000    0.00000000
 O                 -3.19989358    0.01942786    0.01742480
 H                 -3.77256458   -0.75578714    0.01454380
 H                 -3.76033458    0.80311986    0.04433580
 O                  0.02587838   -0.02716741    3.19978003
 H                 -0.74788062   -0.04164041    3.77422003
 H                  0.81120638   -0.05279741    3.75800503
 O                  0.01289660    3.19970228    0.04170145
 H                  0.01286760    3.78009728   -0.72770155
 H                  0.03110360    3.75231728    0.83122145
 O                  3.19989358   -0.01942786   -0.01742480
 H                  3.77256458    0.75578714   -0.01454380
 H                  3.76033458   -0.80311986   -0.04433580
 O                 -0.02587838    0.02716741   -3.19978003
 H                  0.74788062    0.04164041   -3.77422003
 H                 -0.81120638    0.05279741   -3.75800503
 O                 -0.01289660   -3.19970228   -0.04170145
 H                 -0.01286760   -3.78009728    0.72770155
 H                 -0.03110360   -3.75231728   -0.83122145

 1
 2 3 1.0 4 1.0
 3
 4
 5 6 1.0 7 1.0
 6
 7
 8 9 1.0 10 1.0
 9
 10
 11 12 1.0 13 1.0
 12
 13
 14 15 1.0 16 1.0
 15
 16
 17 18 1.0 19 1.0
 18
 19

B 1 8 F
B 1 14 F
B 1 11 F
B 1 2 F
B 1 5 F
B 1 17 F

Ni23_32.wfx

