%chk=V3_cuadrado_plano_cc-pvtz-def2-tzv_1.chk
# opt rpbepbe/cc-pvtz/def2tzv pop=full geom=connectivity output=wfx

V3_cuadrado_plano_cc-pvtz-def2-tzv_1

3 1
 V               -1   -0.00028190    0.00030243   -0.00128838
 O               -1    1.86005520    0.00026258    0.00030204
 H                0    2.46633752    0.00005928   -0.78964111
 O               -1    0.00073937   -1.86006780    0.00090826
 H                0   -0.79476350   -2.45984356    0.00145817
 O               -1   -1.85994489   -0.00076899    0.00030203
 H                0   -2.46617340   -0.00101225   -0.78971623
 O               -1   -0.00029220    1.85993197    0.00090826
 H                0   -0.79601359    2.45949755    0.00171352
 H                0    2.46441811    0.00024345    0.79169369
 H                0   -2.46441170   -0.00098333    0.79163939
 H                0    0.79693327   -2.45891006    0.00158385
 H                0    0.79569712    2.45913092    0.00153673

 1 2 1.0 4 1.0 6 1.0 8 1.0
 2 3 1.0 10 1.0
 3
 4 5 1.0 12 1.0
 5
 6 7 1.0 11 1.0
 7
 8 9 1.0 13 1.0
 9
 10
 11
 12
 13

V3_cuadrado_plano_cc-pvtz-def2-tzv_1.wfx