%chk=Mn2_tetraedrico_cc-pvtz-def2-tzv_2.chk
# opt upbepbe/cc-pvtz/def2tzv pop=full geom=connectivity output=wfx

Mn2_tetraedrico_cc-pvtz-def2-tzv_2

2 2
 Mn              -1   -0.00598433   -0.00049952    0.00129522
 O               -1    0.66282203    1.66260649    0.36963876
 H                0    1.46742879    2.05881041   -0.03246975
 O               -1   -1.80678066   -0.01953185    0.32636580
 H                0   -2.35054469   -0.79139591    0.60523673
 O               -1    0.81917299   -1.23932679    1.06587162
 H                0    0.68196118   -2.21175890    1.04212144
 O               -1    0.30084864   -0.40574527   -1.75669508
 H                0   -0.24025363   -0.03988800   -2.49079752
 H                0   -2.46172217    0.71133041    0.23930137
 H                0    1.10392256   -0.78630846   -2.17833095
 H                0    1.65653243   -1.09985432    1.55986702
 H                0    0.48377996    2.18753223    1.18124236

 1 2 1.0 4 1.0 6 1.0 8 1.0
 2 3 1.0 13 1.0
 3
 4 5 1.0 10 1.0
 5
 6 7 1.0 12 1.0
 7
 8 9 1.0 11 1.0
 9
 10
 11
 12
 13

Mn2_tetraedrico_cc-pvtz-def2-tzv_2.wfx
