%chk=V3_tetraedrico_cc-pvtz-def2-tzv_2.chk
# opt upbepbe/cc-pvtz/def2tzv pop=full geom=connectivity output=wfx

V3_tetraedrico_cc-pvtz-def2-tzv_2

3 3
 V               -1    0.00000509    0.00001238    0.00000940
 O               -1    1.08355434   -0.54326111   -1.41079746
 H                0    1.91731370   -0.11078906   -1.74372744
 O               -1   -1.06599284   -1.42283314    0.54659897
 H                0   -0.89099685   -2.02100169    1.32351805
 O               -1    1.06412711    0.55859839    1.41959633
 H                0    0.88149946    1.33287842    2.01896951
 O               -1   -1.08166785    1.40754517   -0.55536088
 H                0   -1.92239504    1.73638391   -0.13339342
 H                0    0.91748356   -1.32104204   -2.01043519
 H                0   -0.90775742    2.00922287   -1.32985702
 H                0    1.90173269    0.13827641    1.75834895
 H                0   -1.89716316   -1.76460799    0.11606465

 1 2 1.0 4 1.0 6 1.0 8 1.0
 2 3 1.0 10 1.0
 3
 4 5 1.0 13 1.0
 5
 6 7 1.0 12 1.0
 7
 8 9 1.0 11 1.0
 9
 10
 11
 12
 13

V3_tetraedrico_cc-pvtz-def2-tzv_2.wfx