%chk=Fe2_cuadrado_planp_cc-pvtz-def2-tzv_1.chk
# opt pbepbe/cc-pvtz/def2tzv pop=full geom=connectivity output=wfx

Fe2_cuadrado_plano_cc-pvtz-def2-tzv_1

2 1
 Fe              -1   -0.00035174    0.00033734   -0.00023550
 O               -1   -1.81991861    0.00081547    0.00006460
 H                0   -2.39839866    0.00237887   -0.79183477
 O               -1   -0.00087952   -1.82012875    0.00015205
 H                0    0.79252692   -2.39950173    0.00108999
 O               -1    1.82008081   -0.00153903    0.00006459
 H                0    2.39827856   -0.00122857    0.79214668
 O               -1    0.00147508    1.81987070    0.00015207
 H                0   -0.79108674    2.40046968    0.00041776
 H                0    2.39871774   -0.00174373   -0.79170114
 H                0    0.79546958    2.39849000   -0.00010311
 H                0   -0.79407230   -2.39980724    0.00065291
 H                0   -2.39835187    0.00002479    0.79198801

 1 2 1.0 4 1.0 6 1.0 8 1.0
 2 3 1.0 13 1.0
 3
 4 5 1.0 12 1.0
 5
 6 7 1.0 10 1.0
 7
 8 9 1.0 11 1.0
 9
 10
 11
 12
 13

Fe2_cuadrado_plano_cc-pvtz-def2-tzv_1.wfx