%chk=Ni3_cuadrado_plano_cc-pvtz-def2-tzv_1.chk
# opt upbepbe/cc-pvtz/def2tzv pop=(full,nbo) geom=connectivity output=wfx

Ni3_cuadrado_plano_cc-pvtz-def2-tzv_1

3 2
 Ni              -1   -0.00365753    0.00429011   -0.00000314
 O               -1   -0.49869471   -1.77518932   -0.00000522
 H                0    0.17621898   -2.51041678    0.00013461
 O               -1   -1.85781116    0.52010107   -0.00000637
 H                0   -2.42170518    0.43474491   -0.81397380
 O               -1    0.52013322    1.77547245   -0.00000102
 H                0    1.44178820    2.15095126    0.00023470
 O               -1    1.84433287   -0.53292448    0.00000006
 H                0    2.40920385   -0.44385824   -0.81324780
 H                0   -1.41407503   -2.16629642   -0.00002809
 H                0   -2.42165037    0.43487303    0.81401253
 H                0   -0.14032765    2.52398407   -0.00013198
 H                0    2.40927626   -0.44378276    0.81318822

 1 2 1.0 4 1.0 6 1.0 8 1.0
 2 3 1.0 10 1.0
 3
 4 5 1.0 11 1.0
 5
 6 7 1.0 12 1.0
 7
 8 9 1.0 13 1.0
 9
 10
 11
 12
 13

Ni3_cuadrado_plano_cc-pvtz-def2-tzv_1.wfx