%nprocshared=16
%mem=32GB
%chk=Cu22.chk
# opt 6-311++g(2d,2p) m062x output=wfnx scf=tight

Cu[H2O]6 (2+)

2 2
 Cu                 0.00000101   -0.00000014    0.00000018
 O                 -0.02526094   -2.02202938   -0.02057831
 O                 -2.23689689    0.02313830    0.00285271
 O                  0.02095815    0.01090410   -2.02266629
 H                 -2.80470270    0.03085086    0.78161109
 H                  0.00457906    0.79386492   -2.58440584
 H                  0.75195493   -2.59274059   -0.01584222
 H                 -2.82577450    0.03278797   -0.76002184
 H                 -0.01505184   -0.77069959   -2.58542615
 H                 -0.81747984   -2.57185581   -0.00825423
 O                  0.02525905    2.02202842    0.02058097
 O                  2.23689689   -0.02313788   -0.00285299
 O                 -0.02095815   -0.01090369    2.02266602
 H                  2.80470484   -0.03083202   -0.78160887
 H                 -0.00463117   -0.79386656    2.58440422
 H                 -0.75195735    2.59273696    0.01585626
 H                  2.82577253   -0.03280733    0.76002333
 H                  0.01510088    0.77069639    2.58542601
 H                  0.81747705    2.57185809    0.00823494

Cu22.wfx
