%chk=Sc3_tetraedrico_cc-pvtz-def2-tzv_1.chk
# opt pbepbe/cc-pvtz/def2tzv pop=full geom=connectivity output=wfx

Sc3_tetraedrico_cc-pvtz-def2-tzv_1

3 1
 Sc              -1   -0.00001436   -0.00000378    0.00002542
 O               -1    1.20635100    0.84423851   -1.49728491
 H                0    2.01958876    0.45095681   -1.90741856
 O               -1    1.21843790   -0.82804619    1.49659501
 H                0    1.11621562   -1.71661104    1.92561416
 O               -1   -1.22216821    1.48880523    0.83655899
 H                0   -2.03553501    1.89350452    0.43792083
 O               -1   -1.20267768   -1.50501235   -0.83576810
 H                0   -1.09157524   -1.93337601   -1.72359065
 H                0   -2.01067294   -1.92022947   -0.43708681
 H                0    2.02705663   -0.42425757    1.90562607
 H                0   -1.11642691    1.91898556    1.72414499
 H                0    1.09210659    1.73122497   -1.92655189

 1 2 1.0 4 1.0 6 1.0 8 1.0
 2 3 1.0 13 1.0
 3
 4 5 1.0 11 1.0
 5
 6 7 1.0 12 1.0
 7
 8 9 1.0 10 1.0
 9
 10
 11
 12
 13

Sc3_tetraedrico_cc-pvtz-def2-tzv_1.wfx