%nprocshared=16
%mem=32GB
%chk=Ni34.chk
# opt 6-311++g(2d,2p) m062x output=wfnx scf=tight

Ni[H2O]6 (3+)

3 4
 Ni                -0.00000000    0.00000000    0.00000000
 O                 -1.97825416   -0.08581340   -0.03391401
 H                 -2.51561627   -0.88970679    0.07558359
 H                 -2.57951716    0.67371364   -0.12797770
 O                 -0.00955611   -0.02469854    1.98154789
 H                 -0.79253878   -0.14208982    2.54749548
 H                  0.76596107    0.10701449    2.55425308
 O                 -0.06606198    1.97833009    0.00911537
 H                 -0.18681126    2.55128783   -0.76820531
 H                 -0.01454865    2.54162816    0.80125805
 O                  1.97825416    0.08581340    0.03391401
 H                  2.51561627    0.88970679   -0.07558359
 H                  2.57951716   -0.67371364    0.12797770
 O                  0.00955611    0.02469854   -1.98154789
 H                  0.79253878    0.14208982   -2.54749548
 H                 -0.76596107   -0.10701449   -2.55425308
 O                  0.06606198   -1.97833009   -0.00911537
 H                  0.18681126   -2.55128783    0.76820531
 H                  0.01454865   -2.54162816   -0.80125805

Ni34.wfx

