%chk=Mn4_cuadrado_plano_cc-pvtz-def2-tzv_5.chk
# opt upbepbe/cc-pvtz/def2tzv pop=full geom=connectivity output=wfx

Mn4_cuadrado_plano_cc-pvtz-def2-tzv_5

4 4
 Mn              -1    0.00044210    0.00000042   -0.00003411
 O               -1   -1.82995826   -0.00000469    0.02290337
 H                0   -2.41739223   -0.00013332    0.85848816
 O               -1    1.82975574    0.00000552   -0.02287372
 H                0    2.41667285    0.00003444   -0.85886819
 O               -1   -0.00037813    1.83000049    0.00003263
 H                0   -0.74011512    2.44799481   -0.33432409
 O               -1   -0.00036795   -1.82999966    0.00002973
 H                0    0.73835007   -2.44868627    0.33514030
 H                0   -0.73992417   -2.44799623   -0.33472529
 H                0    2.46501927   -0.00002166    0.77698626
 H                0    0.73848002    2.44869812    0.33481403
 H                0   -2.46455442    0.00008651   -0.77739439

 1 2 1.0 4 1.0 6 1.0 8 1.0
 2 3 1.0 13 1.0
 3
 4 5 1.0 11 1.0
 5
 6 7 1.0 12 1.0
 7
 8 9 1.0 10 1.0
 9
 10
 11
 12
 13

Mn4_cuadrado_plano_cc-pvtz-def2-tzv_5.wfx