%chk=Sc2_cuadrado_plano_cc-pvtz-def2-tzv_5.chk
# opt upbepbe/cc-pvtz/def2tzv pop=full geom=connectivity output=wfx

Sc2_cuadrado_plano_cc-pvtz-def2-tzv_5

2 4
 Sc              -1   -0.00012783    0.00002278    0.00004580
 O               -1    1.54094136   -1.55113925   -0.00003319
 H                0    1.95908268   -1.96427233   -0.79445265
 O               -1   -1.55131878   -1.54031031   -0.00014371
 H                0   -1.97223137   -1.95078341   -0.79447317
 O               -1   -1.54081131    1.55077296   -0.00002717
 H                0   -1.95877065    1.96384300   -0.79457321
 O               -1    1.55145980    1.54062016   -0.00010093
 H                0    1.97206754    1.95039445    0.79476252
 H                0   -1.95860607    1.96326736    0.79491359
 H                0    1.95859909   -1.96347624    0.79505951
 H                0   -1.97184465   -1.94968094    0.79496982
 H                0    1.97221921    1.95068127   -0.79472822

 1 2 1.0 4 1.0 6 1.0 8 1.0
 2 3 1.0 11 1.0
 3
 4 5 1.0 12 1.0
 5
 6 7 1.0 10 1.0
 7
 8 9 1.0 13 1.0
 9
 10
 11
 12
 13

Sc2_cuadrado_plano_cc-pvtz-def2-tzv_5.wfx