%chk=Cu2_tetraedrico_cc-pvtz-def2-tzv_1.chk
# opt upbepbe/cc-pvtz/def2tzv pop=full geom=connectivity output=wfx

Cu2_tetraedrico_cc-pvtz-def2-tzv_1

2 2
 Cu              -1    0.00103476    0.00709383    0.00057096
 O               -1   -0.58458538   -1.30346778    1.13563829
 H                0   -0.22007684   -2.20789486    1.23545010
 O               -1   -1.22559397    1.36424056   -0.04877698
 H                0   -1.03698928    2.32071376   -0.15961595
 O               -1    0.20876426   -0.68876666   -1.67916924
 H                0    1.04902534   -1.06844650   -2.01449366
 O               -1    1.60555386    0.65636859    0.59459220
 H                0    2.07157378    1.48046244    0.33862033
 H                0    2.23718701    0.16902860    1.16504583
 H                0   -2.20428944    1.30238204   -0.04796941
 H                0   -0.52225392   -1.11941570   -2.17175860
 H                0   -1.43729490   -1.30954871    1.61988937

 1 2 1.0 4 1.0 6 1.0 8 1.0
 2 3 1.0 13 1.0
 3
 4 5 1.0 11 1.0
 5
 6 7 1.0 12 1.0
 7
 8 9 1.0 10 1.0
 9
 10
 11
 12
 13

Cu2_tetraedrico_cc-pvtz-def2-tzv_1.wfx