%chk=Fe3_cuadrado_plano_cc-pvtz-def2-tzv_10.chk
# opt upbepbe/cc-pvtz/def2tzv pop=(full,nbo) geom=connectivity output=wfx

Fe3_cuadrado_plano_cc-pvtz-def2-tzv_10

3 4
 Fe              -1   -0.00001145    0.00002432    0.00009631
 O               -1    1.92281979    0.00300197    0.00047701
 H                0    2.50159224    0.35204647   -0.72840670
 O               -1   -0.00323175    1.90008286    0.00644619
 H                0   -0.80711287    2.47813623    0.08018045
 O               -1   -1.92275339   -0.00315214    0.00047550
 H                0   -2.50257620    0.34398626   -0.72848707
 O               -1    0.00319363   -1.90002916   -0.00766647
 H                0   -0.79876027   -2.48075413   -0.08142291
 H                0    0.79871762    2.48087277    0.07971242
 H                0   -2.50108842   -0.35218860    0.72971884
 H                0    0.80709795   -2.47803567   -0.08155106
 H                0    2.50220133   -0.34392383    0.72989400

 1 2 1.0 4 1.0 6 1.0 8 1.0
 2 3 1.0 13 1.0
 3
 4 5 1.0 10 1.0
 5
 6 7 1.0 11 1.0
 7
 8 9 1.0 12 1.0
 9
 10
 11
 12
 13

Fe3_cuadrado_plano_cc-pvtz-def2-tzv_10.wfx