%chk=Mn2_cuaddrado_plano_cc-pvtz-def2-tzv_2.chk
# opt upbepbe/cc-pvtz/def2tzv pop=full geom=connectivity output=wfx

Mn2_cuadrado_plano_cc-pvtz-def2-tzv_2

2 4
 Mn              -1   -0.00000528    0.00006048    0.00004863
 O               -1    1.82999388   -0.00320540   -0.00003004
 H                0    2.42321042    0.51058708   -0.59057338
 O               -1   -1.83000104    0.00321969    0.00010749
 H                0   -2.42307091   -0.51176388    0.58975574
 O               -1   -0.00321539   -1.82996361   -0.00567497
 H                0   -0.78642152   -2.41195539   -0.10860846
 O               -1    0.00321008    1.83001347    0.00575362
 H                0    0.78656743    2.41181873    0.10857360
 H                0   -0.77782405    2.41493444    0.10842513
 H                0   -2.42095398    0.51880960   -0.59112751
 H                0    0.77789868   -2.41461564   -0.10932814
 H                0    2.42082565   -0.51984015    0.59041843

 1 2 1.0 4 1.0 6 1.0 8 1.0
 2 3 1.0 13 1.0
 3
 4 5 1.0 11 1.0
 5
 6 7 1.0 12 1.0
 7
 8 9 1.0 10 1.0
 9
 10
 11
 12
 13

Mn2_cuadrado_plano_cc-pvtz-def2-tzv_2.wfx