%nprocshared=16
%mem=32GB
%chk=Fe25.chk
# opt 6-311++g(2d,2p) m062x output=wfnx scf=tight

Fe[H2O]6 (2+)

2 5
 Fe                 0.00006843   -0.00000508    0.00003979
 O                 -0.02896464   -0.00494004   -2.14529432
 O                  0.08159303    2.13939920   -0.07594383
 O                 -2.14677281    0.02278378   -0.01992719
 H                  0.00645177    2.75046105    0.66581391
 H                 -2.71569913    0.79626908    0.06506426
 H                  0.72417216   -0.14478087   -2.73046668
 H                 -0.80217875    0.13572631   -2.70367622
 H                  0.22138352    2.66849465   -0.86981890
 H                 -2.72102933   -0.74198033   -0.14118592
 O                  0.02903861    0.00480944    2.14535103
 O                 -0.08181877   -2.13941185    0.07586953
 O                  2.14686800   -0.02273472    0.01991378
 H                 -0.00672529   -2.75042780   -0.66593080
 H                  2.71577839   -0.79619425   -0.06542375
 H                 -0.72410576    0.14484689    2.73046801
 H                  0.80216758   -0.13607558    2.70379552
 H                 -0.22136885   -2.66856273    0.86975057
 H                  2.72114483    0.74195486    0.14155721

Fe25.wfx
