%chk=Co2_cuadrado_plano_cc-pvtz-def2-tzv_1.chk
# opt upbepbe/cc-pvtz/def2tzv pop=full geom=connectivity output=wfx

Co2_cuadrado_plano_cc-pvtz-def2-tzv_1

2 2
 Co              -1    0.00019475    0.00008946   -0.00017382
 O               -1    0.12291318   -1.81573854   -0.00082574
 H                0    0.71929070   -2.34945459    0.56332511
 O               -1   -1.81568889   -0.12262588    0.00016533
 H                0   -2.42375945    0.38350513   -0.57688856
 O               -1   -0.12260343    1.81597207    0.00047888
 H                0    0.40339841    2.42554579   -0.55675540
 O               -1    1.81602187    0.12289099   -0.00051597
 H                0    2.42400383   -0.39183197   -0.56999184
 H                0   -0.72913897    2.34815047    0.55510456
 H                0    2.35067391    0.70773460    0.57479310
 H                0   -0.40481964   -2.42465185   -0.55715082
 H                0   -2.35004883   -0.70540196    0.57783698

 1 2 1.0 4 1.0 6 1.0 8 1.0
 2 3 1.0 12 1.0
 3
 4 5 1.0 13 1.0
 5
 6 7 1.0 10 1.0
 7
 8 9 1.0 11 1.0
 9
 10
 11
 12
 13

Co2_cuadrado_plano_cc-pvtz-def2-tzv_1.wfx