%nprocshared=16
%mem=32GB
%chk=Zn21.chk
# opt 6-311++g(2d,2p) um062x output=wfnx scf=tight geom=check guess=read

Zn[H2O]6 (2+)

2 1

Zn21.wfx



