%chk=Ti3_cuadrado_plano_cc-pvtz-def2-tzv_1.chk
# opt upbepbe/cc-pvtz/def2tzv pop=full geom=connectivity output=wfx

Ti3_cuadrado_plano_cc-pvtz-def2-tzv_1

3 2
 Ti              -1    0.00000548    0.00000689    0.00004237
 O               -1   -1.97864594   -0.07306518    0.00003092
 H                0   -2.56038948   -0.65336012    0.56032983
 O               -1   -0.07306412    1.97865661    0.00003847
 H                0    0.47516096    2.60138365   -0.54815327
 O               -1    1.97865690    0.07307387    0.00003092
 H                0    2.60101824   -0.46245667   -0.56116687
 O               -1    0.07307492   -1.97864623    0.00003847
 H                0   -0.47553180   -2.60159690   -0.54758121
 H                0    2.55988841    0.65304846    0.56120632
 H                0   -0.66650982    2.55919805    0.54742343
 H                0    0.66648867   -2.55931587    0.54742385
 H                0   -2.60041985    0.46279514   -0.56152465

 1 2 1.0 4 1.0 6 1.0 8 1.0
 2 3 1.0 13 1.0
 3
 4 5 1.0 11 1.0
 5
 6 7 1.0 10 1.0
 7
 8 9 1.0 12 1.0
 9
 10
 11
 12
 13

Ti3_cuadrado_plano_cc-pvtz-def2-tzv_1.wfx