%chk=Zn2_cuadrado_plano_cc-pvtz-def2-tzv_1.chk
# opt pbepbe/cc-pvtz/def2tzv pop=full geom=connectivity output=wfx

Zn2_cuadrado_plano_cc-pvtz-def2-tzv_1

2 1
 Zn              -1    0.00000581    0.00001444    0.00005835
 O               -1   -1.81300544   -0.60090896   -0.00006945
 H                0   -2.56132879   -0.20723499    0.49402769
 O               -1    1.81302813    0.60087423   -0.00006944
 H                0    2.17769929    1.36480098   -0.49257189
 O               -1    0.60089733   -1.81302478   -0.00014314
 H                0    0.20654307   -2.56149823    0.49319364
 O               -1   -0.60088585    1.81300876   -0.00014314
 H                0   -0.20717004    2.56137598    0.49393097
 H                0   -1.36441711    2.17758194   -0.49325222
 H                0    2.56153723    0.20661973    0.49332178
 H                0    1.36454139   -2.17779240   -0.49310142
 H                0   -2.17785284   -1.36388030   -0.49389772

 1 2 1.0 4 1.0 6 1.0 8 1.0
 2 3 1.0 13 1.0
 3
 4 5 1.0 11 1.0
 5
 6 7 1.0 12 1.0
 7
 8 9 1.0 10 1.0
 9
 10
 11
 12
 13

Zn2_cuadrado_plano_cc-pvtz-def2-tzv_1.wfx