%nprocshared=16
%mem=32GB
%chk=Ti23.chk
# opt 6-311++g(2d,2p) m062x output=wfnx scf=tight

Ti[H2O]6 (2+)

2 3
 Ti                 0.00000000   -0.00000000   -0.00000000
 O                 -0.16619816    2.19391643    0.07923753
 H                 -0.68787879    2.77028547   -0.51814246
 H                  0.33949988    2.79589975    0.66576519
 O                 -0.00136021   -0.03469052   -2.20012048
 H                 -0.56158803    0.50792261   -2.79510178
 H                  0.63653930   -0.50237164   -2.77818493
 O                 -2.19713728   -0.07497746   -0.09094084
 H                 -2.74046182   -0.70068061   -0.61460024
 H                 -2.82734093    0.45231198    0.44653181
 O                  0.16619816   -2.19391643   -0.07923753
 O                  0.00136021    0.03469052    2.20012048
 O                  2.19713728    0.07497746    0.09094084
 H                  0.68787879   -2.77028547    0.51814246
 H                 -0.33949988   -2.79589975   -0.66576519
 H                  0.56158803   -0.50792261    2.79510178
 H                 -0.63653930    0.50237164    2.77818493
 H                  2.74046182    0.70068061    0.61460024
 H                  2.82734093   -0.45231198   -0.44653181

Ti23.wfx

