%chk=Ni2_tetraedrico_cc-pvtz-def2-tzv_2.chk
# opt upbepbe/cc-pvtz/def2tzv pop=full geom=connectivity output=wfx

Ni2_tetraedrico_cc-pvtz-def2-tzv_2

2 3
 Ni              -1    0.00000632    0.00678152   -0.00001370
 O               -1    1.46737381    1.05389656    0.16272304
 H                0    2.21614478    1.03220264    0.79809469
 O               -1   -0.16303771   -1.03614241    1.47030151
 H                0   -1.02237554   -1.34099165    1.83068305
 O               -1   -1.47000378    1.04967088   -0.16600343
 H                0   -2.21986914    1.02311798   -0.79994845
 O               -1    0.16569360   -1.04029854   -1.46707593
 H                0    1.02554082   -1.34690697   -1.82476150
 H                0    0.52288842   -1.60261427    1.88185933
 H                0   -1.73096389    1.71744851    0.50602507
 H                0    1.72801622    1.71833234   -0.51267988
 H                0   -0.51976591   -1.60748299   -1.87845018

 1 2 1.0 4 1.0 6 1.0 8 1.0
 2 3 1.0 12 1.0
 3
 4 5 1.0 10 1.0
 5
 6 7 1.0 11 1.0
 7
 8 9 1.0 13 1.0
 9
 10
 11
 12
 13

Ni2_tetraedrico_cc-pvtz-def2-tzv_2.wfx