%chk=Ni2_cuadrado_plano_cc-pvtz-def2-tzv_1.chk
# opt pbepbe/cc-pvtz/def2tzv pop=(full,nbo) geom=connectivity output=wfx

Ni2_cuadrado_plano_cc-pvtz-def2-tzv_1

2 3
 Ni              -1    0.00092636   -0.00144443   -0.01800171
 O               -1   -1.88895533   -0.25502087   -0.01813301
 H                0   -2.44633121    0.36115105   -0.54042146
 O               -1    0.25374744   -1.88099885   -0.01834779
 H                0    0.47374334   -2.35845312    0.80961287
 O               -1    1.88570935    0.25154331   -0.01835340
 H                0    2.36449251    0.47167082    0.80866463
 O               -1   -0.25318253    1.88766985   -0.01807144
 H                0   -0.46910159    2.36642182    0.81000367
 H                0   -2.36733717   -0.46664252    0.81131879
 H                0   -0.36633345   -2.43972296   -0.53477211
 H                0    2.44438589   -0.36621219   -0.53739874
 H                0    0.36199212    2.44668365   -0.53971466

 1 2 1.0 4 1.0 6 1.0 8 1.0
 2 3 1.0 10 1.0
 3
 4 5 1.0 11 1.0
 5
 6 7 1.0 12 1.0
 7
 8 9 1.0 13 1.0
 9
 10
 11
 12
 13

Ni2_cuadrado_plano_cc-pvtz-def2-tzv_1.wfx