%nprocshared=16
%mem=32GB
%chk=V24.chk
# opt 6-311++g(2d,2p) m062x output=wfnx scf=tight

V[H2O]6 (2+)

2 4
 V                 -0.00000000   -0.00000000   -0.00000000
 O                 -2.15324578    0.07898148    0.17093353
 O                 -0.13427581    2.14473699   -0.20417051
 H                 -2.75259844    0.52782675   -0.43599215
 H                 -0.61215363    2.74191774    0.38222843
 H                  0.44201555    2.69875213   -0.74262808
 O                  2.15324578   -0.07898148   -0.17093353
 O                  0.13427581   -2.14473699    0.20417051
 O                  0.02529301   -0.00263190   -2.15846373
 O                 -0.02529301    0.00263190    2.15846373
 H                 -2.69992432   -0.50750624    0.70592809
 H                  2.75259844   -0.52782675    0.43599215
 H                  2.69992432    0.50750624   -0.70592809
 H                  0.61215363   -2.74191774   -0.38222843
 H                 -0.44201555   -2.69875213    0.74262808
 H                  0.50432977   -0.62259234   -2.71973781
 H                 -0.60228954    0.45150390   -2.73194597
 H                 -0.50432977    0.62259234    2.71973781
 H                  0.60228954   -0.45150390    2.73194597

V24.wfx
