%chk=Sc3_cuadrado_plano_cc-pvtz-def2-tzv_3.chk
# opt upbepbe/cc-pvtz/def2tzv pop=(full,nbo) geom=connectivity output=wfx

Sc3_cuadrada_plana_cc-pvtz-def2-tzv_3

3 5
 Sc              -1    0.00013096    0.00018482    0.00004344
 O               -1    1.47796566    1.45335410   -0.00001087
 H                0    1.94573868    1.83915681    0.80749104
 O               -1   -1.45308441    1.47779129   -0.00014245
 H                0   -1.91537287    1.87077091   -0.80733952
 O               -1   -1.47836872   -1.45366909    0.00011034
 H                0   -1.94721157   -1.83885237   -0.80715512
 O               -1    1.45331749   -1.47791122   -0.00004981
 H                0    1.91463067   -1.87155053   -0.80743419
 H                0   -1.91511017    1.87125751    0.80695988
 H                0    1.94736259    1.83783811   -0.80721337
 H                0    1.91595204   -1.87026194    0.80720752
 H                0   -1.94737963   -1.83876027    0.80731383

 1 2 1.0 4 1.0 6 1.0 8 1.0
 2 3 1.0 11 1.0
 3
 4 5 1.0 10 1.0
 5
 6 7 1.0 13 1.0
 7
 8 9 1.0 12 1.0
 9
 10
 11
 12
 13

Sc3_cuadrada_plana_cc-pvtz-def2-tzv_3.wfx