%chk=Cr3_cuadrado_plano_cc-pvtz-def2-tzv_4.chk
# opt upbepbe/cc-pvtz/def2tzv pop=full geom=connectivity output=wfx

Cr3_cuadrado_plano_cc pvtz-def2tzv_4

3 2
 Cr              -1   -0.00052894   -0.00108292   -0.00000358
 O               -1   -1.40170716    1.37636370   -0.00154825
 H                0   -1.94759319    1.66645496    0.77546189
 O               -1   -1.37225390   -1.40786335    0.00119961
 H                0   -1.67882314   -1.92586656    0.79084254
 O               -1    1.40589914   -1.37246299    0.00153579
 H                0    1.97304654   -1.63607136    0.77277805
 O               -1    1.36970502    1.40646213   -0.00120775
 H                0    1.93638703    1.67886359   -0.76970859
 H                0   -1.71643681    1.88991744   -0.79082457
 H                0   -1.90763327   -1.71313529   -0.77736329
 H                0    1.69814314   -1.91339080   -0.77804003
 H                0    1.64245949    1.95922230    0.77710480

 1 2 1.0 4 1.0 6 1.0 8 1.0
 2 3 1.0 10 1.0
 3
 4 5 1.0 11 1.0
 5
 6 7 1.0 12 1.0
 7
 8 9 1.0 13 1.0
 9
 10
 11
 12
 13

Cr3_cuadrado_plano_cc pvtz-def2tzv_4.wfx