%chk=Mn3_cuadrado_plano_cc-pvtz-def2-tzv_1.chk
# opt rpbepbe/cc-pvtz/def2tzv pop=full geom=connectivity output=wfx

Mn3_cuadrado_plano_cc-pvtz-def2-tzv_1

3 1
 Mn              -1   -0.00000447   -0.00001336    0.00003048
 O               -1    0.00091300    1.82999944   -0.00183093
 H                0   -0.78367328    2.43239945   -0.11126851
 O               -1   -1.83000084    0.00091949   -0.00001957
 H                0   -2.43807408   -0.66345810   -0.42646222
 O               -1   -0.00091131   -1.82999854    0.00184591
 H                0    0.78373329   -2.43230596    0.11127391
 O               -1    1.82999899   -0.00090484   -0.00003944
 H                0    2.43807997    0.66350331    0.42635579
 H                0    2.43732596   -0.66588513   -0.42663176
 H                0    0.78625907    2.43146743   -0.11082874
 H                0   -2.43730814    0.66600719    0.42640012
 H                0   -0.78622977   -2.43151866    0.11075164

 1 2 1.0 4 1.0 6 1.0 8 1.0
 2 3 1.0 11 1.0
 3
 4 5 1.0 12 1.0
 5
 6 7 1.0 13 1.0
 7
 8 9 1.0 10 1.0
 9
 10
 11
 12
 13

Mn3_cuadrado_plano_cc-pvtz-def2-tzv_1.wfx
